14
1 0 3
2 0 13
2 1 22
3 0 5
3 1 3
3 2 9
4 0 18
4 1 12
4 2 2
4 3 16
5 0 2
5 1 9
5 2 9
5 3 16
5 4 10
6 0 21
6 1 10
6 2 13
6 3 4
6 4 16
6 5 1
7 0 18
7 1 7
7 2 11
7 3 6
7 4 12
7 5 11
7 6 6
8 0 20
8 1 5
8 2 12
8 3 4
8 4 12
8 5 1
8 6 16
8 7 13
9 0 13
9 1 19
9 2 13
9 3 15
9 4 19
9 5 20
9 6 17
9 7 14
9 8 4
10 0 16
10 1 14
10 2 20
10 3 14
10 4 1
10 5 13
10 6 22
10 7 14
10 8 20
10 9 8
11 0 17
11 1 13
11 2 10
11 3 19
11 4 5
11 5 21
11 6 21
11 7 15
11 8 14
11 9 2
11 10 2
12 0 9
12 1 9
12 2 4
12 3 6
12 4 8
12 5 9
12 6 11
12 7 4
12 8 18
12 9 16
12 10 22
12 11 2
13 0 9
13 1 11
13 2 8
13 3 20
13 4 21
13 5 9
13 6 1
13 7 12
13 8 13
13 9 6
13 10 21
13 11 17
13 12 2
